inputs/input2.lp
Minimize
obj: 5.5x1 + 4.5x2 + 9.9x3 + 2.7x4 + 6.4x5 +2.5x6 +3.3x7 + 4.2x8 + 2.5x9 + 4.9x10 + 4.6x11+ 4.7x12
Subject To
c1: X1 + X2 + X3 + X4 = 10
c2: X5 + X6 + X7 + X8 = 9
c3: X9 + X10 +X11 +x12 = 9
c4: X1 + X5 + x9 = 4
c5: X2 + X6 +X10 =7
c6: X3 +X7 +x11 = 5
c7: X4 + x8 + x12 = 12
Bounds
x1 >= 0
x2 >= 0
x3 >= 0
x4 >= 0
x5 >= 0
x6 >= 0
x7 >= 0
x8 >= 0
x9 >= 0
x10 >= 0
x11 >= 0
x12 >= 0
Generals
x1 x2 x3 x4 x5 x6 x7 x8 x9 x10 x11 x12
End
