inputs/input2
Min Z = 5.5x1 + 4.5x2 + 9.9x3 + 2.7x4 + 6.4x5 +2.5x6 +3.3x7 + 4.2x8 + 2.5x9 + 4.9x10 + 4.6x11+ 4.7x12
X1 + X2 + X3 + X4 = 10
X5 + X6 + X7 + X8 = 9
X9 + X10 +X11 +x12 = 9
X1 + X5 + x9 = 4
X2 + X6 +X10 =7
X3 +X7 +x11 = 5
X4 + x8 + x12 = 12